SYSTEM = supercell
#LSORBIT = .TRUE.
ICHARG = 11
NBANDS = 192
GGA = PS
ISPIN = 2
MAGMOM = 4 4 4 4 -4 -4 8*0
ENCUT = 800
EDIFF = 1E-7

ISIF = 3
EDIFFG = -0.002
IBRION = 2
NSW = 0
AMIN = 0.05
MAXMIX = 40
LASPH = .TRUE.

#LSDA+U
LDAU = .TRUE
LDAUTYPE = 2
LDAUL = 2 -1
LDAUU =  4.5 0
LDAUJ = 0 0 
LMAXMIX = 4

ISMEAR = 0
SIGMA = 0.02

#LREAL = Auto
LORBIT = 11
