Fe6 O8                                  
   1.00000000000000     
     5.9239884022792371    0.0000000000000000    0.0000000000000000
     2.9619942011396185    5.1303244481330896   -0.0000000000006391
     2.9619942011396185    1.7101081494098196    4.8369162758792656
   Fe   O 
     6     8
Direct
  0.1250000000000000  0.6250000000000000  0.6250000000000000
  0.6250000000000000  0.1250000000000000  0.6250000000000000
  0.6250000000000000  0.6250000000000000  0.1250000000000000
  0.6250000000000000  0.6250000000000000  0.6250000000000000
  0.2500000000000000  0.2500000000000000  0.2500000000000000
  0.0000000000000000  0.0000000000000000  0.0000000000000000
  0.8698034440847735  0.3905896077456745  0.8698034440847806
  0.3801965259152240  0.3801965259152169  0.8594103922543255
  0.3801965259152240  0.3801965259152240  0.3801965259152240
  0.8698034440847735  0.8698034440847806  0.3905896077456745
  0.8594103922543255  0.3801965259152240  0.3801965259152240
  0.8698034440847735  0.8698034440847735  0.8698034440847735
  0.3801965259152240  0.8594103922543255  0.3801965259152169
  0.3905896077456745  0.8698034440847735  0.8698034440847735
 
  0.00000000E+00  0.00000000E+00  0.00000000E+00
  0.00000000E+00  0.00000000E+00  0.00000000E+00
  0.00000000E+00  0.00000000E+00  0.00000000E+00
  0.00000000E+00  0.00000000E+00  0.00000000E+00
  0.00000000E+00  0.00000000E+00  0.00000000E+00
  0.00000000E+00  0.00000000E+00  0.00000000E+00
  0.00000000E+00  0.00000000E+00  0.00000000E+00
  0.00000000E+00  0.00000000E+00  0.00000000E+00
  0.00000000E+00  0.00000000E+00  0.00000000E+00
  0.00000000E+00  0.00000000E+00  0.00000000E+00
  0.00000000E+00  0.00000000E+00  0.00000000E+00
  0.00000000E+00  0.00000000E+00  0.00000000E+00
  0.00000000E+00  0.00000000E+00  0.00000000E+00
  0.00000000E+00  0.00000000E+00  0.00000000E+00
